p tw 117 128
1 2
2 30
3 14
4 5
4 9
5 6
6 7
7 8
8 9
9 10
10 11
11 12
12 13
13 108
14 22
15 16
16 17
17 18
18 19
19 20
20 21
22 23
23 24
24 25
25 26
26 27
27 28
28 29
29 31
30 41
30 96
31 32
32 33
33 34
33 35
34 20
35 36
36 37
37 38
37 44
38 39
39 40
40 42
41 52
42 43
43 20
44 45
45 46
46 47
47 48
48 49
49 50
50 51
50 57
51 53
52 63
53 54
54 55
55 56
56 20
57 58
58 59
59 60
60 61
61 62
62 64
63 74
64 65
65 66
66 67
67 68
68 69
69 70
69 71
70 20
71 72
72 73
73 75
74 85
75 76
76 77
77 78
78 79
79 80
80 81
81 82
82 83
83 84
84 86
85 20
86 87
86 18
87 88
88 89
89 90
90 91
90 95
91 92
92 93
93 94
94 102
95 97
96 107
97 98
98 99
98 102
99 100
100 101
101 102
102 103
103 104
104 105
104 18
105 106
106 108
107 3
108 109
109 110
109 15
110 111
111 112
112 113
112 9
113 114
114 115
115 116
116 117
117 4
